50, 955
37, 38
25, 27
35, 36
49, 53
33, 38
40, 37
35, 40
49, 50
34, 33
49, 48
44, 42
25, 23
48, 43
41, 46
44, 44
29, 34
32, 30
29, 29
45, 41
42, 41
31, 26
38, 43
32, 29
33, 31
31, 30
30, 26
40, 39
37, 32
37, 38
33, 35
39, 42
36, 32
42, 43
45, 50
30, 30
41, 36
48, 50
31, 33
47, 46
46, 42
46, 45
44, 49
40, 41
31, 28
36, 36
47, 50
26, 29
48, 53
40, 45
40, 37
